NAME : in_house_7_8
TYPE : TSP
DIMENSION : 7
EDGE_WEIGHT_TYPE : EXPLICIT
EDGE_WEIGHT_FORMAT : UPPER_ROW
COMMENT : INVERSION_SHIFT=2
EDGE_WEIGHT_SECTION
25
28
40
44
23
39
25
2
47
36
2
32
36
33
38
44
28
17
25
39
48
